c Standarized MaxSat Instance
c{
c "sha1sum": "2ffe84aac7a64b3e2e7234f05a9264a60b581e2f",
c "nvars": 60,
c "ncls": 1000,
c "total_lits": 2000,
c "nhards": 0,
c "nhard_nlits": 0,
c "nhard_len_stats":
c    { "min": 0,
c      "max": 0,
c      "ave": 0.0000,
c      "stddev": 0.0000 },
c "nsofts": 1000,
c "nsoft_nlits": 2000,
c "nsoft_len_stats":
c    { "min": 2,
c      "max": 2,
c      "ave": 2.0000,
c      "stddev": 0.0000 },
c "nsoft_wts": 1,
c "soft_wt_stats":
c    { "min": 1,
c      "max": 1,
c      "ave": 1.0000,
c      "stddev": 0.0000 }
c}
c------------------------------------------------------------
c Generated after 1 tries
c Graph with 60 nodes and 500 edges, Max edges:1770
1 1 5 0
1 -1 -5 0
1 1 6 0
1 -1 -6 0
1 1 8 0
1 -1 -8 0
1 1 12 0
1 -1 -12 0
1 1 14 0
1 -1 -14 0
1 1 15 0
1 -1 -15 0
1 1 16 0
1 -1 -16 0
1 1 21 0
1 -1 -21 0
1 1 22 0
1 -1 -22 0
1 1 28 0
1 -1 -28 0
1 1 34 0
1 -1 -34 0
1 1 35 0
1 -1 -35 0
1 1 42 0
1 -1 -42 0
1 1 43 0
1 -1 -43 0
1 1 44 0
1 -1 -44 0
1 1 46 0
1 -1 -46 0
1 1 48 0
1 -1 -48 0
1 1 52 0
1 -1 -52 0
1 1 53 0
1 -1 -53 0
1 1 55 0
1 -1 -55 0
1 2 3 0
1 -2 -3 0
1 2 4 0
1 -2 -4 0
1 2 11 0
1 -2 -11 0
1 2 12 0
1 -2 -12 0
1 2 13 0
1 -2 -13 0
1 2 15 0
1 -2 -15 0
1 2 21 0
1 -2 -21 0
1 2 23 0
1 -2 -23 0
1 2 29 0
1 -2 -29 0
1 2 31 0
1 -2 -31 0
1 2 35 0
1 -2 -35 0
1 2 37 0
1 -2 -37 0
1 2 48 0
1 -2 -48 0
1 2 51 0
1 -2 -51 0
1 2 52 0
1 -2 -52 0
1 2 59 0
1 -2 -59 0
1 3 6 0
1 -3 -6 0
1 3 11 0
1 -3 -11 0
1 3 13 0
1 -3 -13 0
1 3 21 0
1 -3 -21 0
1 3 23 0
1 -3 -23 0
1 3 24 0
1 -3 -24 0
1 3 28 0
1 -3 -28 0
1 3 29 0
1 -3 -29 0
1 3 34 0
1 -3 -34 0
1 3 45 0
1 -3 -45 0
1 3 47 0
1 -3 -47 0
1 3 48 0
1 -3 -48 0
1 3 49 0
1 -3 -49 0
1 3 53 0
1 -3 -53 0
1 3 59 0
1 -3 -59 0
1 3 60 0
1 -3 -60 0
1 4 9 0
1 -4 -9 0
1 4 11 0
1 -4 -11 0
1 4 14 0
1 -4 -14 0
1 4 17 0
1 -4 -17 0
1 4 18 0
1 -4 -18 0
1 4 24 0
1 -4 -24 0
1 4 28 0
1 -4 -28 0
1 4 39 0
1 -4 -39 0
1 4 40 0
1 -4 -40 0
1 4 43 0
1 -4 -43 0
1 4 44 0
1 -4 -44 0
1 4 47 0
1 -4 -47 0
1 4 56 0
1 -4 -56 0
1 4 57 0
1 -4 -57 0
1 5 8 0
1 -5 -8 0
1 5 15 0
1 -5 -15 0
1 5 19 0
1 -5 -19 0
1 5 20 0
1 -5 -20 0
1 5 28 0
1 -5 -28 0
1 5 31 0
1 -5 -31 0
1 5 35 0
1 -5 -35 0
1 5 39 0
1 -5 -39 0
1 5 42 0
1 -5 -42 0
1 5 43 0
1 -5 -43 0
1 5 48 0
1 -5 -48 0
1 5 49 0
1 -5 -49 0
1 5 50 0
1 -5 -50 0
1 6 8 0
1 -6 -8 0
1 6 9 0
1 -6 -9 0
1 6 13 0
1 -6 -13 0
1 6 16 0
1 -6 -16 0
1 6 17 0
1 -6 -17 0
1 6 20 0
1 -6 -20 0
1 6 21 0
1 -6 -21 0
1 6 28 0
1 -6 -28 0
1 6 34 0
1 -6 -34 0
1 6 39 0
1 -6 -39 0
1 6 41 0
1 -6 -41 0
1 6 42 0
1 -6 -42 0
1 6 44 0
1 -6 -44 0
1 6 45 0
1 -6 -45 0
1 6 46 0
1 -6 -46 0
1 6 52 0
1 -6 -52 0
1 6 53 0
1 -6 -53 0
1 6 54 0
1 -6 -54 0
1 6 56 0
1 -6 -56 0
1 6 57 0
1 -6 -57 0
1 7 8 0
1 -7 -8 0
1 7 12 0
1 -7 -12 0
1 7 17 0
1 -7 -17 0
1 7 20 0
1 -7 -20 0
1 7 24 0
1 -7 -24 0
1 7 26 0
1 -7 -26 0
1 7 28 0
1 -7 -28 0
1 7 31 0
1 -7 -31 0
1 7 33 0
1 -7 -33 0
1 7 43 0
1 -7 -43 0
1 7 44 0
1 -7 -44 0
1 7 50 0
1 -7 -50 0
1 7 51 0
1 -7 -51 0
1 7 59 0
1 -7 -59 0
1 7 60 0
1 -7 -60 0
1 8 10 0
1 -8 -10 0
1 8 11 0
1 -8 -11 0
1 8 16 0
1 -8 -16 0
1 8 29 0
1 -8 -29 0
1 8 33 0
1 -8 -33 0
1 8 39 0
1 -8 -39 0
1 8 43 0
1 -8 -43 0
1 8 49 0
1 -8 -49 0
1 8 51 0
1 -8 -51 0
1 8 56 0
1 -8 -56 0
1 8 57 0
1 -8 -57 0
1 8 58 0
1 -8 -58 0
1 8 60 0
1 -8 -60 0
1 9 13 0
1 -9 -13 0
1 9 14 0
1 -9 -14 0
1 9 27 0
1 -9 -27 0
1 9 31 0
1 -9 -31 0
1 9 34 0
1 -9 -34 0
1 9 35 0
1 -9 -35 0
1 9 37 0
1 -9 -37 0
1 9 38 0
1 -9 -38 0
1 9 45 0
1 -9 -45 0
1 9 51 0
1 -9 -51 0
1 9 52 0
1 -9 -52 0
1 10 11 0
1 -10 -11 0
1 10 14 0
1 -10 -14 0
1 10 16 0
1 -10 -16 0
1 10 17 0
1 -10 -17 0
1 10 19 0
1 -10 -19 0
1 10 21 0
1 -10 -21 0
1 10 24 0
1 -10 -24 0
1 10 26 0
1 -10 -26 0
1 10 27 0
1 -10 -27 0
1 10 30 0
1 -10 -30 0
1 10 32 0
1 -10 -32 0
1 10 45 0
1 -10 -45 0
1 10 49 0
1 -10 -49 0
1 10 50 0
1 -10 -50 0
1 10 51 0
1 -10 -51 0
1 10 52 0
1 -10 -52 0
1 11 12 0
1 -11 -12 0
1 11 18 0
1 -11 -18 0
1 11 19 0
1 -11 -19 0
1 11 23 0
1 -11 -23 0
1 11 25 0
1 -11 -25 0
1 11 29 0
1 -11 -29 0
1 11 32 0
1 -11 -32 0
1 11 33 0
1 -11 -33 0
1 11 34 0
1 -11 -34 0
1 11 35 0
1 -11 -35 0
1 11 39 0
1 -11 -39 0
1 11 43 0
1 -11 -43 0
1 11 44 0
1 -11 -44 0
1 11 45 0
1 -11 -45 0
1 11 47 0
1 -11 -47 0
1 11 49 0
1 -11 -49 0
1 11 53 0
1 -11 -53 0
1 11 54 0
1 -11 -54 0
1 11 57 0
1 -11 -57 0
1 11 60 0
1 -11 -60 0
1 12 17 0
1 -12 -17 0
1 12 21 0
1 -12 -21 0
1 12 22 0
1 -12 -22 0
1 12 30 0
1 -12 -30 0
1 12 32 0
1 -12 -32 0
1 12 44 0
1 -12 -44 0
1 12 50 0
1 -12 -50 0
1 12 51 0
1 -12 -51 0
1 12 55 0
1 -12 -55 0
1 13 14 0
1 -13 -14 0
1 13 15 0
1 -13 -15 0
1 13 17 0
1 -13 -17 0
1 13 26 0
1 -13 -26 0
1 13 31 0
1 -13 -31 0
1 13 40 0
1 -13 -40 0
1 13 41 0
1 -13 -41 0
1 13 42 0
1 -13 -42 0
1 13 44 0
1 -13 -44 0
1 13 46 0
1 -13 -46 0
1 13 47 0
1 -13 -47 0
1 13 50 0
1 -13 -50 0
1 13 51 0
1 -13 -51 0
1 13 55 0
1 -13 -55 0
1 13 56 0
1 -13 -56 0
1 13 58 0
1 -13 -58 0
1 14 16 0
1 -14 -16 0
1 14 21 0
1 -14 -21 0
1 14 22 0
1 -14 -22 0
1 14 25 0
1 -14 -25 0
1 14 32 0
1 -14 -32 0
1 14 33 0
1 -14 -33 0
1 14 34 0
1 -14 -34 0
1 14 36 0
1 -14 -36 0
1 14 37 0
1 -14 -37 0
1 14 42 0
1 -14 -42 0
1 14 45 0
1 -14 -45 0
1 14 49 0
1 -14 -49 0
1 14 59 0
1 -14 -59 0
1 15 19 0
1 -15 -19 0
1 15 23 0
1 -15 -23 0
1 15 25 0
1 -15 -25 0
1 15 29 0
1 -15 -29 0
1 15 31 0
1 -15 -31 0
1 15 38 0
1 -15 -38 0
1 15 42 0
1 -15 -42 0
1 15 44 0
1 -15 -44 0
1 15 49 0
1 -15 -49 0
1 15 54 0
1 -15 -54 0
1 15 58 0
1 -15 -58 0
1 15 60 0
1 -15 -60 0
1 16 17 0
1 -16 -17 0
1 16 24 0
1 -16 -24 0
1 16 30 0
1 -16 -30 0
1 16 31 0
1 -16 -31 0
1 16 40 0
1 -16 -40 0
1 16 42 0
1 -16 -42 0
1 16 60 0
1 -16 -60 0
1 17 18 0
1 -17 -18 0
1 17 26 0
1 -17 -26 0
1 17 31 0
1 -17 -31 0
1 17 34 0
1 -17 -34 0
1 17 39 0
1 -17 -39 0
1 17 43 0
1 -17 -43 0
1 17 44 0
1 -17 -44 0
1 17 45 0
1 -17 -45 0
1 17 49 0
1 -17 -49 0
1 17 50 0
1 -17 -50 0
1 17 53 0
1 -17 -53 0
1 17 54 0
1 -17 -54 0
1 18 19 0
1 -18 -19 0
1 18 24 0
1 -18 -24 0
1 18 33 0
1 -18 -33 0
1 18 38 0
1 -18 -38 0
1 18 40 0
1 -18 -40 0
1 18 46 0
1 -18 -46 0
1 18 48 0
1 -18 -48 0
1 18 53 0
1 -18 -53 0
1 18 54 0
1 -18 -54 0
1 19 21 0
1 -19 -21 0
1 19 25 0
1 -19 -25 0
1 19 26 0
1 -19 -26 0
1 19 31 0
1 -19 -31 0
1 19 33 0
1 -19 -33 0
1 19 44 0
1 -19 -44 0
1 19 51 0
1 -19 -51 0
1 19 52 0
1 -19 -52 0
1 19 59 0
1 -19 -59 0
1 20 28 0
1 -20 -28 0
1 20 30 0
1 -20 -30 0
1 20 31 0
1 -20 -31 0
1 20 32 0
1 -20 -32 0
1 20 38 0
1 -20 -38 0
1 20 39 0
1 -20 -39 0
1 20 52 0
1 -20 -52 0
1 20 56 0
1 -20 -56 0
1 20 57 0
1 -20 -57 0
1 20 59 0
1 -20 -59 0
1 21 23 0
1 -21 -23 0
1 21 25 0
1 -21 -25 0
1 21 26 0
1 -21 -26 0
1 21 30 0
1 -21 -30 0
1 21 32 0
1 -21 -32 0
1 21 33 0
1 -21 -33 0
1 21 38 0
1 -21 -38 0
1 21 42 0
1 -21 -42 0
1 21 53 0
1 -21 -53 0
1 21 57 0
1 -21 -57 0
1 21 58 0
1 -21 -58 0
1 22 25 0
1 -22 -25 0
1 22 30 0
1 -22 -30 0
1 22 35 0
1 -22 -35 0
1 22 37 0
1 -22 -37 0
1 22 39 0
1 -22 -39 0
1 22 40 0
1 -22 -40 0
1 22 41 0
1 -22 -41 0
1 22 44 0
1 -22 -44 0
1 22 45 0
1 -22 -45 0
1 22 47 0
1 -22 -47 0
1 22 49 0
1 -22 -49 0
1 22 54 0
1 -22 -54 0
1 22 57 0
1 -22 -57 0
1 22 58 0
1 -22 -58 0
1 22 60 0
1 -22 -60 0
1 23 30 0
1 -23 -30 0
1 23 37 0
1 -23 -37 0
1 23 40 0
1 -23 -40 0
1 23 44 0
1 -23 -44 0
1 23 48 0
1 -23 -48 0
1 23 50 0
1 -23 -50 0
1 23 57 0
1 -23 -57 0
1 23 59 0
1 -23 -59 0
1 24 25 0
1 -24 -25 0
1 24 30 0
1 -24 -30 0
1 24 31 0
1 -24 -31 0
1 24 34 0
1 -24 -34 0
1 24 43 0
1 -24 -43 0
1 24 45 0
1 -24 -45 0
1 24 47 0
1 -24 -47 0
1 24 49 0
1 -24 -49 0
1 24 52 0
1 -24 -52 0
1 24 57 0
1 -24 -57 0
1 24 59 0
1 -24 -59 0
1 25 27 0
1 -25 -27 0
1 25 29 0
1 -25 -29 0
1 25 33 0
1 -25 -33 0
1 25 35 0
1 -25 -35 0
1 25 38 0
1 -25 -38 0
1 25 40 0
1 -25 -40 0
1 25 47 0
1 -25 -47 0
1 25 49 0
1 -25 -49 0
1 25 50 0
1 -25 -50 0
1 25 52 0
1 -25 -52 0
1 25 53 0
1 -25 -53 0
1 25 54 0
1 -25 -54 0
1 25 55 0
1 -25 -55 0
1 25 57 0
1 -25 -57 0
1 25 60 0
1 -25 -60 0
1 26 28 0
1 -26 -28 0
1 26 30 0
1 -26 -30 0
1 26 32 0
1 -26 -32 0
1 26 36 0
1 -26 -36 0
1 26 48 0
1 -26 -48 0
1 27 28 0
1 -27 -28 0
1 27 35 0
1 -27 -35 0
1 27 36 0
1 -27 -36 0
1 27 38 0
1 -27 -38 0
1 27 39 0
1 -27 -39 0
1 27 47 0
1 -27 -47 0
1 27 52 0
1 -27 -52 0
1 27 53 0
1 -27 -53 0
1 27 56 0
1 -27 -56 0
1 27 57 0
1 -27 -57 0
1 27 58 0
1 -27 -58 0
1 28 29 0
1 -28 -29 0
1 28 31 0
1 -28 -31 0
1 28 33 0
1 -28 -33 0
1 28 35 0
1 -28 -35 0
1 28 36 0
1 -28 -36 0
1 28 43 0
1 -28 -43 0
1 28 45 0
1 -28 -45 0
1 28 46 0
1 -28 -46 0
1 28 48 0
1 -28 -48 0
1 28 54 0
1 -28 -54 0
1 28 59 0
1 -28 -59 0
1 29 31 0
1 -29 -31 0
1 29 41 0
1 -29 -41 0
1 29 43 0
1 -29 -43 0
1 29 46 0
1 -29 -46 0
1 30 33 0
1 -30 -33 0
1 30 34 0
1 -30 -34 0
1 30 41 0
1 -30 -41 0
1 30 48 0
1 -30 -48 0
1 30 56 0
1 -30 -56 0
1 30 57 0
1 -30 -57 0
1 30 60 0
1 -30 -60 0
1 31 32 0
1 -31 -32 0
1 31 34 0
1 -31 -34 0
1 31 38 0
1 -31 -38 0
1 31 41 0
1 -31 -41 0
1 31 43 0
1 -31 -43 0
1 31 46 0
1 -31 -46 0
1 31 49 0
1 -31 -49 0
1 31 50 0
1 -31 -50 0
1 31 51 0
1 -31 -51 0
1 31 53 0
1 -31 -53 0
1 31 54 0
1 -31 -54 0
1 32 33 0
1 -32 -33 0
1 32 38 0
1 -32 -38 0
1 32 40 0
1 -32 -40 0
1 32 42 0
1 -32 -42 0
1 32 45 0
1 -32 -45 0
1 32 47 0
1 -32 -47 0
1 32 48 0
1 -32 -48 0
1 32 49 0
1 -32 -49 0
1 32 51 0
1 -32 -51 0
1 32 52 0
1 -32 -52 0
1 32 53 0
1 -32 -53 0
1 32 60 0
1 -32 -60 0
1 33 40 0
1 -33 -40 0
1 33 43 0
1 -33 -43 0
1 33 45 0
1 -33 -45 0
1 33 50 0
1 -33 -50 0
1 33 54 0
1 -33 -54 0
1 33 59 0
1 -33 -59 0
1 34 37 0
1 -34 -37 0
1 34 39 0
1 -34 -39 0
1 34 46 0
1 -34 -46 0
1 34 49 0
1 -34 -49 0
1 34 50 0
1 -34 -50 0
1 34 54 0
1 -34 -54 0
1 34 58 0
1 -34 -58 0
1 35 41 0
1 -35 -41 0
1 35 45 0
1 -35 -45 0
1 35 51 0
1 -35 -51 0
1 35 52 0
1 -35 -52 0
1 35 54 0
1 -35 -54 0
1 35 60 0
1 -35 -60 0
1 36 40 0
1 -36 -40 0
1 36 50 0
1 -36 -50 0
1 36 51 0
1 -36 -51 0
1 36 57 0
1 -36 -57 0
1 36 59 0
1 -36 -59 0
1 36 60 0
1 -36 -60 0
1 37 39 0
1 -37 -39 0
1 37 45 0
1 -37 -45 0
1 37 46 0
1 -37 -46 0
1 37 53 0
1 -37 -53 0
1 37 54 0
1 -37 -54 0
1 37 57 0
1 -37 -57 0
1 38 40 0
1 -38 -40 0
1 38 43 0
1 -38 -43 0
1 38 45 0
1 -38 -45 0
1 38 50 0
1 -38 -50 0
1 38 51 0
1 -38 -51 0
1 38 56 0
1 -38 -56 0
1 38 57 0
1 -38 -57 0
1 38 58 0
1 -38 -58 0
1 38 60 0
1 -38 -60 0
1 39 44 0
1 -39 -44 0
1 39 45 0
1 -39 -45 0
1 39 49 0
1 -39 -49 0
1 39 55 0
1 -39 -55 0
1 39 57 0
1 -39 -57 0
1 39 58 0
1 -39 -58 0
1 40 41 0
1 -40 -41 0
1 40 42 0
1 -40 -42 0
1 40 45 0
1 -40 -45 0
1 40 51 0
1 -40 -51 0
1 40 56 0
1 -40 -56 0
1 40 60 0
1 -40 -60 0
1 41 43 0
1 -41 -43 0
1 41 44 0
1 -41 -44 0
1 41 45 0
1 -41 -45 0
1 41 50 0
1 -41 -50 0
1 41 57 0
1 -41 -57 0
1 42 45 0
1 -42 -45 0
1 42 48 0
1 -42 -48 0
1 42 49 0
1 -42 -49 0
1 42 51 0
1 -42 -51 0
1 42 57 0
1 -42 -57 0
1 43 44 0
1 -43 -44 0
1 43 45 0
1 -43 -45 0
1 43 49 0
1 -43 -49 0
1 43 52 0
1 -43 -52 0
1 43 54 0
1 -43 -54 0
1 44 45 0
1 -44 -45 0
1 44 50 0
1 -44 -50 0
1 44 56 0
1 -44 -56 0
1 44 58 0
1 -44 -58 0
1 44 60 0
1 -44 -60 0
1 45 48 0
1 -45 -48 0
1 45 52 0
1 -45 -52 0
1 45 60 0
1 -45 -60 0
1 46 48 0
1 -46 -48 0
1 46 54 0
1 -46 -54 0
1 46 57 0
1 -46 -57 0
1 46 60 0
1 -46 -60 0
1 47 49 0
1 -47 -49 0
1 47 50 0
1 -47 -50 0
1 47 51 0
1 -47 -51 0
1 47 54 0
1 -47 -54 0
1 48 49 0
1 -48 -49 0
1 48 51 0
1 -48 -51 0
1 48 55 0
1 -48 -55 0
1 48 58 0
1 -48 -58 0
1 48 59 0
1 -48 -59 0
1 49 52 0
1 -49 -52 0
1 49 56 0
1 -49 -56 0
1 50 51 0
1 -50 -51 0
1 50 52 0
1 -50 -52 0
1 50 53 0
1 -50 -53 0
1 50 54 0
1 -50 -54 0
1 51 53 0
1 -51 -53 0
1 51 56 0
1 -51 -56 0
1 51 59 0
1 -51 -59 0
1 51 60 0
1 -51 -60 0
1 52 53 0
1 -52 -53 0
1 53 54 0
1 -53 -54 0
1 53 60 0
1 -53 -60 0
1 54 57 0
1 -54 -57 0
1 54 60 0
1 -54 -60 0
1 55 58 0
1 -55 -58 0
1 55 59 0
1 -55 -59 0
1 55 60 0
1 -55 -60 0
1 56 58 0
1 -56 -58 0
1 56 60 0
1 -56 -60 0
